
 102   30
  10   10   10   10   10   10   10   10   10   10   10   10   10   10   10   10   10   10   10   10   10   10   10   10   10   10   10   10   10   10

   0   0   0   0   0   0   0   0   0   0   0   0   0   0   0   0   0   0   0   0   0   0   0   0   0   0   0   0   0   0   0  29 2 3 4 5 6 7 8 9 11 12 13 14 15 16 17 18 19 21 22 23 24 25 26 27 28 30 33 36 37 
   9   1   0   0   0   0   0   0   0   0   0   0   0   3   0   0   0   1   0   0   0   2   0   0   0   0   0   2   0   2   0   9 100 96 66 62 61 53 47 32 10 
   8   0   0   0   0   0   0   0   0   0   0   0   0   0   0   0   0   0   0   1   0   0   0   0   0   0   0   0   0   0   0  14 101 72 71 70 65 59 58 47 44 42 40 39 35 20 
   6   0   0   0   0   0   0   0   0   0   0   4   1   0   0   0   0   0   0   0   0   0   0   0   1   0   0   0   0   1   0  18 101 100 98 72 70 66 58 57 52 50 49 47 46 45 44 42 40 34 
   2   0   0   1   0   0   0   0   0   0   0   0   0   0   0   0   0   0   0   0   0   0   0   1   0   0   0   0   5   0   0  17 101 98 97 96 95 90 66 65 62 61 60 54 52 50 48 42 31 
   2   0   0   0   0   0   3   2   0   0   0   0   0   0   0   0   1   0   0   0   0   0   0   0   0   0   0   0   0   0   0  15 100 71 70 61 60 57 56 54 52 49 47 45 44 43 32 
   5   0   0  10   0   0   0   4   1   0   0   5   0   0   0   0   0   0   0   0   0   0   0   4   0   0   0   0   0   0   0  12 100 98 96 68 65 61 60 57 55 49 41 29 
   8   6   0   0   0   0   0   0   0   0   4   0   8   0   0   0   6   0   0   0   0   0   0   0   0   3   0   0   0   0   0  19 101 98 95 94 91 73 72 71 70 69 65 64 58 56 55 52 49 39 38 
   9   0   0   0   0   0   0   0   0   1   0   0   0   0   0   0  10   0   0   0   0   5   1   0   0   0   0   0   4   0   0  18 100 98 97 95 72 71 67 65 56 55 54 53 52 48 47 45 44 39 
   3   0   0   0   0   0   0   0   0   0   0   0   0   0   0   0   0   4   0   0   2   0   0   0   0   0   0   0   0   0   1  20 101 98 95 91 90 73 72 71 70 69 68 65 64 60 55 52 49 48 42 41 
   5   0   0   0   0   0   0   0   0   0   0   0   3   0   1   0   0   0   0   0   2   0   0   0   0   7   0   0   0   0   5  18 101 100 99 98 97 90 86 73 71 70 67 64 62 56 55 50 49 34 
   6   0   0   0   2   0   0   0   4   0   0   0   0   6   0   0   0   0   1   0   0   0   0   8   0   0   0   0   0   0   0  15 98 96 95 91 72 70 65 59 55 50 48 47 42 40 39 
   6   0   0   0   0   0   0   0   6   0   0   0   0   0   0   0   0   0   0   0   0   0   0   0   0   0   0   0   0   0   0  15 101 98 95 94 71 64 61 60 53 52 51 49 42 41 39 
   5   0   0   0   0   2   5   0   0   0   0   0   0   0   0   0   0   0   0   0   0   0   0   0   0   0   0   0   0   0   0  15 101 96 86 72 71 69 67 64 59 57 55 50 41 39 34 
   6   0   0   0   0   3   0   0   0   0   0   0   0   0   0   0   0   0   0   0   0   4   0   9   3   0   0   0   0   0   0  23 101 100 99 98 97 96 95 91 90 88 72 71 70 69 68 61 60 57 55 54 50 49 48 
   4   0   0   0   0   0   4   0   0   0   0   0   0   0   0   0   5   0   0   0   0   0   0   8   0   0   0   0   0   0   0  18 101 100 97 95 94 93 92 91 87 83 70 66 56 54 50 49 47 45 
   7   0   0   0   0   0   0   0   0   0   0   0   0   0   0   0   0   0   0   0   0   0   0   0   0   0   0   0   0   0   0  14 101 100 96 94 92 89 69 67 66 65 64 63 61 35 
   6   0   1   0   0   0  10   0   0   0   0   0   4   0   0   0   0   0   0   0   0   0   0   0   0   0   0   0   0   0   0  21 100 99 98 95 94 93 91 86 85 81 80 72 71 70 69 68 60 56 54 52 46 
   3   0   8   0   0   0   0   0   0   0   0   0   0   0   0   0   0   0   0   0   0   0   0   0   0   7   0   0   0   8   0  20 100 98 95 94 93 92 91 89 87 86 85 70 69 68 64 63 60 55 54 46 
   6   7   0   6   0   0   0   0   0   0   0   0   0   0   0   0   0   7   0   0   0   0   0   0   0   0   0   0   8   0   8  17 100 99 98 95 93 91 90 84 83 69 68 67 64 62 55 48 46 
   7   0   0   0   0   0   0  10   0   0   0   0   0   6   0   0   0   0  10   0   0   0   0   0   0   0   0   0   0   0   0  16 100 99 95 92 91 90 88 86 83 71 58 55 54 52 49 47 
   8   0   9   0   0   8   0   0   0   7   0   0   0   8   0   0   0   0   0   0   0   0   0   0   8   0   0   0   0   0   0  10 99 97 95 86 58 55 54 51 50 39 
   4   0   0   8   8   0   0   0   0   0   0   0   0   3   0   1   0   0   0   0   0   0   0   0   0   0   0   0   7   0   0  17 98 97 96 95 94 90 86 83 71 70 69 68 64 55 52 50 42 
   6   0   0   0   7   0   0   0   0   0   3   0   0   0   0   0   8   6   0   0   7   0   0   0   0   0   4   0   0   8   0  17 99 98 95 94 93 92 90 86 85 83 72 68 64 55 54 52 51 
   2   0   0   0   0   0   0   0   0   0   0   0   0   0   0   0   0   0   0   0   0  10  10   0   0   0   0   0   0   0   0  15 101 98 93 92 83 82 73 72 68 67 64 57 56 52 45 
   6   7   0   6   0   0   0   0   0   0   0   0  10   0   0   0   0   0   0   0   0   0   0   0   8   0   0   0   0   0   0  10 101 93 92 90 85 84 82 66 63 31 
   9   0   0   0   0   0   6   0   0   7   0   0   0   0   0   0   0   0   0   0   0   0   0   0   0   0   0   4   0   0   0  10 97 95 94 70 64 63 56 44 42 39 
   3   0   0   5   0   0   0   0   0   0   0   0   0   0   0   5   0   6   5   0   0   0   0   0   0   0   0   0   0   0   0  20 99 95 94 93 92 91 90 88 86 82 78 72 71 70 69 68 64 60 55 50 
   2   0   0   0   0   0   0   0   0   0   0   0   0   0   0   0   0   9   0   0   0   8   0   0   0   0   0   0   0   4   0  21 101 99 97 95 94 92 91 90 88 85 84 83 82 80 72 71 70 69 64 52 50 
   3   0   0   0   0   0   0   0   0   0   0   0   0   0   8   0   0   0   0   0   0   0   0   0   0   0   0   0   0   0   0  18 98 96 95 93 90 88 84 83 82 80 78 73 68 64 63 62 57 48 
   2   7   7   0   0   0   0   0   0   0   0   0   7   0   0   8   0   0   0   7   0   0   0   0   7   0   0   0   0   0   0  13 100 94 91 89 88 86 83 79 78 72 71 70 47 
   4   0   0   0   0   0   0   0   0   0   0   0   0   4   0   0   0   8   0   0   0   5   0   0   0   0   0   0   0   0   0  15 101 98 97 95 94 93 91 90 86 83 82 80 78 77 50 
   1   0   0   0   0   0   7   0   7   0   0   0  10   0   0   0   7   4   0   5   0   0   0   0   7   7   0   6   0   0   0  16 94 93 92 91 90 87 86 85 84 83 82 79 70 69 68 64 
   7   0   0   0   0   0   0   3   0   0   0   0   0   6   0   0   0   0   0   5   0   0   0   0   0   0   0   0   0   0   0  12 95 94 92 91 85 81 80 76 68 65 63 54 
   5   0   0   0   0   0   0   0   0   0   0   0   0   0   0   7   0   0   0   0   0   0   0   0   0   3   0   0   0   0   0  12 98 95 93 91 90 86 85 83 75 68 55 54 
   3   6   0   0   0   0   0   9   0   7   4   0   7   9   4   0   0   9   0   4   0   0   0   0   0   0   3   0   0   0   9  14 99 98 93 91 90 86 85 84 83 78 75 69 66 64 
   7   3   0   0   0   0   0   0   0   0   0   0   0   0   0   0   0   0   0   0   0   0   0   0   0   0  10   0   0   0   0  14 96 92 91 90 89 87 81 78 77 76 75 73 69 65 
   1   0   0   7   0   0   0   0   0   0   0   0   0   0   0   6   0   0   0   0   0   0   7   0   0   0   0   0   0   8   4  10 97 96 88 85 80 79 77 76 61 54 
   2   0   0   0   0   0   9   0   0   0   0   0   0   0   0   0   0   0   9   0   0   0   0   0   0   0   0   0   0   0   0  14 93 92 90 88 87 83 81 80 79 78 76 75 74 68 
   2   0   6   0   0   0   0   0   0   0   0   0   0   0   0   0   0   0   0   0   0   0   0   6   0   0   0   0   7   0   0  12 97 92 90 89 88 82 81 80 77 76 75 63 
   9   6   7   0   0   0   8   0   0   0   6   0   0   0   0   7   0   0   7   0   6   9   0   0   0   0   0   0   0   0   0   9 97 88 85 83 80 76 75 63 54 
  10   0   0   0   0   0   0   0   0   0   1   0   3   0   0   0   0   0   0   0   0   0   0   0   0   0   0   0   0   0   7  11 99 93 88 85 84 82 81 80 78 76 75 
   9   0   0   0  10   0   0   0   0   0   0   0   0   0   6   0   0   0   0   0   0   0   0   0   0   0   0   0   0   0   0  10 92 89 86 83 82 81 78 77 76 75 
   4   0   0   0   0   6   0   0   0   0   0   0   0   0   0   0  10   0   0   4   0   0   8   7   0   7   0   0   0   0   0   9 96 91 89 87 86 80 76 75 74 
   5   0   0   0   6   0   0   0   0   0   0   0   0   0   0   0   0   0   0   0   0   0   0   3   0   0   4   0   0   0   5   9 96 90 86 85 84 80 79 75 74 
   8   0   7   0   0  10   0   0   0   0   0   0   0   0   0   0   0   0   7   0   0   0   0   5   0   0   0   0   0  10   7   9 97 96 88 82 79 78 76 75 74 
   8   0   0   0   0   0   0   0   0   0   0   8   0   0   0   8   0   0   0   0   0   0   0   0   5   0   0   7   0   0   0   5 80 75 69 68 64 
  10   0   0   0  10   0   0   0   0   6   4   0   0   0   0   0   0   0   0   0   0   0   0   0   0   0   0   0   6   0   0   8 94 92 89 87 86 76 75 74 
   2   8   0   0   8   0   0   6   0   0   0   0   0   6   0   0   0   0   0   0   0   0   0   0   0   8   0   0   0   0   0   7 85 84 82 77 76 75 74 
   3   0   0   0   0   0   0   0   0   0   0   0   0   4   0   0   0   0   0   0   0   0   0   0   0   0   0   0   0   0   0   5 89 81 76 75 63 
  10   0   0   0   0   0   0   0   0   0   0   0   7   0   0   0   0   0   0   0   0   0   0   0   0   0   0   0   0   0   0   5 91 80 78 70 69 
   7   0   0   0   0   0   0   0   0   0   0   8   0   5   6   0   0   0   0   0   0   0   4   0   7   0   0   0   0   0   0   4 89 78 77 63 
   4   0   0   6   0   0   0   0   0   0   8   0   0   7   0   0   0   5   0   0   4   0   0   0   0   0   0   0   0   4   0   5 92 91 78 77 74 
   8   0   0   0   0   0   0   0   0  10   0   0   0   0   0   0   0   0   0   8   0   0   0   0   3   0   0   0   0   0   0   4 84 82 78 74 
   9   0   0   0   0   0   0   0   0   0   9   4   6   0   5   0   2   0   4   0   0   0   0   0   0   0   0   0   0   0   0   4 81 80 77 76 
   7   0   0   0   5   0   4   0   0   0   0   0   0   0   8   0   0   9   0   0   0   0   0   0   0   0   0   4   0   0   0   4 88 78 77 74 
   1   0   4   0   0   0   0   0   0   0   9   5   0   0   0   0   0   4   0   0   0   6   0   0   0   0   0   0   0   0   0   4 94 85 75 74 
   3   0   0   6   7   0   0   0   0   0   0   0   0   0  10   0   0   0   0   0   0   0   0   0   0   0   0   0   5   5   0   4 96 87 85 82 
  10   0   3   0   0   0   0   0   0   0   0   0   0   0   0   0   0   0   0   0   0   0   0   0   0   0   8   0   0   0   7   4 100 90 79 76 
   4   5   0   0   0   0   7   0   0   0   0   0   0   0   0   0   0   0   0   0   0   5   0   0   0   0   0   0   0   0   0   3 84 83 74 
   1   0   0   4   0   0   0   5   0   0   7   7   0   0   0   0   0   0   0   6   0   3   0   0   0   0   0   0   0   0   0   3 87 86 84 
  10   0   9   0   0   0   0   0   6   0   0   0   0   8   0   0   0   0   0   0   0   0   0   0   0   0   0  10   0   0   0   3 87 75 74 
   2   0   0   0   0   0   5   0   0   0   0   0   0   8   0   0   0   0   0   0   0   0   0   0   0   0   9   0  10   0   0   2 79 74 
   4   0   0   0   2   0   0   0   0   0   5   0   0   3   0   0   0   0   0   0   0   0   0   0   0   0   0   0   0   6   0   2 81 76 
   1   0   0   5   0   0   0   5   0   0   0   0   0   0   0   5   0   0   0   0   0   0   0   0   0   0   0   0   0   0   0   2 93 83 
   4   0   0   0   0   0   0   0   0   0   0   0   7   0   0   0   6   0   0   0   0   0   0   8   0   0   0   0   0   0   0   2 88 79 
   9   0   0   0   0   0   0   0   0   0   0   0   0   0   0   0   0   0   0   0   0   0   0   0   0   6   0   0   0   0   0   2 80 74 
   3   0   0   0   0   0   5   0   0   0   0   0   0   4   0   0   0   0   0   0   0   7   0   0   0   0   0   0   0   0   0   1 77 
   7   0   0   0   0   0   5   3   0   0   0   0   0   0   0   0   0   0   0   6   0   7   0   0   0   8   0   0   0   0   0   1 74 
   2   0   0   0   0   6   0   8   0   0   6   0   6   5   7   0   0   0   0   0   0   0   0   0   0   0   0   0   0   0   0   1 75 
   6   0   0   0   0   0   0   0  10   0   0   0   0   0   0   0   0   0   0   0   0   0   0   0   0   0   0   0   0   0   7   1 77 
   1   0   0   0   0   0   0   0   0   0   0   0   0   0   0   0   0   0   0   0   0   0   7   0   0  10   0   0   0   9   0   1 87 
   4   0   3   0   0   4   0   0   0   0   0   0   0   0   0   0   7   0   0  10   0   0   0   0   0   0   0   0   0   0   0   1 85 
   4   0   0   0   0   0   0   0   0   0   0   0   0  10   0   0   0   0   0   0   0   0   6   0   0   0   0   0   0   0   0   1 102
   3   0   0   0   0   7   0   6   0   0   0   0   0   0   0   0   0   0   0   0   0   2   0   0   0   0   4   0   0   0   0   1 102
   4   0   0   0   0   0   0   0   0   0   0   0   0   0   0   0   0   0   0   0   0   0   0   0   0   0   0   0   0   4   8   1 102
   5   0   0   0   0   0   0   0   0   0   0   0   0   0   0   0   0   0   0   8  10  10   0   0   0   0   0   0   0   0   0   1 102
  10   4   0   0   0   0   0   0   0   0   7   0   0   0   0   0   0   0   0   0   0   0   0   0   0   0   0   0   0   0   0   1 102
   9   0   0   0   0   0   0   0   0   0   0   0   0   0   0   0   0   0   5   0   0   0   0   0   0   0   0   0   3   0   0   1 102
   4   6   0   0   0   0   0   0   0   0   0   0   0   9   6   0   7   0   0   0   0   0   0   0   0   0   0  10   0   0  10   1 102
   4   0   0   0   0   0   0   0   0   5   0   0   0   0   0   0   0   0   0   0   0   0   0   0   0   0   0   0   0   9   0   1 102
   4   0   0   0   0   0   0   9   0   0  10   0   0   0   6   0   2   0   0   0   8   0   0   5   7   0   0   0   0   0   2   1 102
   9   7   0   0   0   0   0   0   0   0   0  10   0   4   0   0   0   0   7   0   0   0   0   0   0   0   0   5   0   0   0   1 102
   1   0   0   0   0   0   0   0   7   0   0   0   0   4   0   0   0   0   0   0   0   0   0   0   0   0   0   0   0   0   0   1 102
   9   0   0   0   3   0   7   5   0   0   0   0   0   0   0   7   0   0   0   0   0   0   5   0   9   0   0   0   0   0   0   1 102
   2   0   0   0   0   0   5   0   0   3   0   0   0   0   0   0   0   0   0   0   9   6   0   0   8   0   0   0   0   0   0   1 102
   3   9   0   0   0   6   4  10   0   0   0   0   0   0   0   0   0   0   0   0   0   0   0   0   0   0   0   0   0   0   0   1 102
   7   0   0   0   0   0   0   0   0   0   5   0   0   0   0   0   0   0   0   0   0   7   0   4   0   0   0   0   0   0   0   1 102
   9   0   0   0   0   8   0   7   0   5   0   5   0   0   0   0   0   0   8   0   0   0   0   0   0   3   0   0   0   0   0   1 102
   1   0   0   0   3   6   0   0   0   0   0   0   0   0   0   0   0   0   6   0   0   0   0   0   0   0   0   0   0   0   0   1 102
   2   0   0   8   0   0   0   0   0   0   0   0   0   0   0   0   0   0   6   0   0   0   0   0   7   0   0   0   0   0   0   1 102
   9   8   0   0   0   0   0   0   0   0   0   0   0   0   0   0   6   0   0   0   0   0   0  10   0   0   0   0   0   0   0   1 102
   1   0   0   6   0   0   0   0   4   0   0   0   0   7   0   0   0   0   0   0   0   0   0   0   5   0   0   9   0   0   0   1 102
   8   0   0   0   0   0   0   0   0   0   0   0   0   0   0   0   0   0   0   0   0   0   0   0   6   0   0   0   0   0   4   1 102
   8   0   0   0   0   0   0   0  10   0   0   0   5   9   0   0   0   0   3   0   0   0   0   0   0   0   0   0   0   0   0   1 102
   2   0   0   0   6   6   0   9   5   0   0   4   0   0   0   0   0   0   0   0   0   0   0   0   0   0   0   0   0   0   0   1 102
   3   0   0   0   0   0   0   3   0   0   0   0   0   0   0   0   5   0   0   0   0   0   0   0   0   0   0   3   0   0   0   1 102
   8   0   8   0   0   0   4   4   0   9   0   0   0   0   0   0   0   0   0   8   0   0   0   0   9   0   0   0   5   0   0   1 102
   4   0   0   0   5   0   0   0   6   0   0   0   0   0   0   0   0   0   0   0   0   0   0   0   2   0   0   0   0   0   0   1 102
   9   0   0   0   8   0  10   0   0   0   8   0   0   0   5   0   8   0   0   6   0   0   0   0   0   0   0   0   0   0   0   1 102
   8   0   6   0   0   0   0   0   0   0   0   0   0   0   0   0   0   0   0   0   0   0   0   0   0   3   0   0   0   0   0   1 102
   0   0   0   0   0   0   0   0   0   0   0   0   0   0   0   0   0   0   0   0   0   0   0   0   0   0   0   0   0   0   0   0 
